(declare-fun var0 () String)
(declare-fun var1 () String)
(declare-fun var2 () String)
(declare-fun var3 () String)
(declare-fun var4 () String)
(declare-fun var5 () String)
(declare-fun var6 () String)
(declare-fun var7 () String)
(declare-fun var8 () String)
(declare-fun var9 () String)
(declare-fun var10 () String)
(declare-fun var11 () String)
(declare-fun var12 () String)
(declare-fun var13 () String)
(declare-fun var14 () String)
(declare-fun var15 () String)
(declare-fun var16 () String)
(declare-fun var17 () String)
(declare-fun var18 () String)
(declare-fun var19 () String)
(declare-fun var20 () String)
(declare-fun var21 () String)
(declare-fun var22 () String)
(declare-fun var23 () String)
(declare-fun var24 () String)
(declare-fun var25 () String)
(declare-fun var26 () String)
(declare-fun var27 () String)
(declare-fun var28 () String)
(declare-fun var29 () String)
(declare-fun var30 () String)
(declare-fun var31 () String)
(declare-fun var32 () String)
(declare-fun var33 () String)
(declare-fun var34 () String)
(declare-fun var35 () String)
(declare-fun var36 () String)
(declare-fun var37 () String)
(declare-fun var38 () String)
(declare-fun var39 () String)
(declare-fun var40 () String)
(declare-fun var41 () String)
(declare-fun var42 () String)
(declare-fun var43 () String)
(declare-fun var44 () String)
(declare-fun var45 () String)
(declare-fun var46 () String)
(declare-fun var47 () String)
(declare-fun var48 () String)
(declare-fun var49 () String)
(declare-fun var50 () String)
(declare-fun var51 () String)
(declare-fun var52 () String)
(declare-fun var53 () String)
(declare-fun var54 () String)
(declare-fun var55 () String)
(declare-fun var56 () String)
(declare-fun var57 () String)
(declare-fun var58 () String)
(declare-fun var59 () String)
(declare-fun var60 () String)
(assert (= var0 (str.++ var1 var2)))
(assert (= var2 (str.++ var3 var4)))
(assert (= var4 (str.++ var5 var6)))
(assert (= var6 (str.++ var7 var8)))
(assert (= var8 (str.++ var9 var10)))
(assert (= var10 (str.++ var11 var12)))
(assert (= var12 (str.++ var13 var14)))
(assert (= var14 (str.++ var15 var16)))
(assert (= var16 (str.++ var17 var18)))
(assert (= var18 (str.++ var19 var20)))
(assert (= var20 (str.++ var21 var22)))
(assert (= var22 (str.++ var23 var24)))
(assert (= var24 (str.++ var25 var26)))
(assert (= var26 (str.++ var27 var28)))
(assert (= var28 (str.++ var29 var30)))
(assert (= var30 (str.++ var31 var32)))
(assert (= var32 (str.++ var33 var34)))
(assert (= var34 (str.++ var35 var36)))
(assert (= var36 (str.++ var37 var38)))
(assert (= var38 (str.++ var39 var40)))
(assert (= var40 (str.++ var41 var42)))
(assert (= var42 (str.++ var43 var44)))
(assert (= var44 (str.++ var45 var46)))
(assert (= var46 (str.++ var47 var48)))
(assert (= var48 (str.++ var49 var50)))
(assert (= var50 (str.++ var51 var52)))
(assert (= var52 (str.++ var53 var54)))
(assert (= var54 (str.++ var55 var56)))
(assert (= var56 (str.++ var57 var58)))
(assert (= var58 (str.++ var59 var60)))
(assert (= var0 "solution"))
(assert (= "^" (str.at var29 91)))
(assert (= ")" (str.at var6 118)))
(assert (= "W" (str.at var35 952)))
(assert (= "r" (str.at var9 356)))
(assert (= "E" (str.at var42 648)))
(assert (= "Q" (str.at var20 833)))
(assert (= "f" (str.at var13 181)))
(assert (= "r" (str.at var7 346)))
(assert (= "I" (str.at var57 884)))
(assert (= "G" (str.at var36 580)))
(assert (= "l" (str.at var12 925)))
(assert (= "'" (str.at var40 396)))
(assert (= "N" (str.at var19 459)))
(assert (= "H" (str.at var43 524)))
(assert (= "8" (str.at var53 993)))
(assert (= "C" (str.at var2 6)))
(assert (= "M" (str.at var38 3)))
(assert (= "`" (str.at var30 346)))
(assert (= "u" (str.at var12 491)))
(assert (= "X" (str.at var26 494)))
(assert (= "^" (str.at var31 694)))
(assert (= "=" (str.at var32 539)))
(assert (= "r" (str.at var32 807)))
(assert (= "}" (str.at var43 439)))
(assert (= "2" (str.at var39 186)))
(assert (= "]" (str.at var5 333)))
(assert (= "&" (str.at var22 306)))
(assert (= "h" (str.at var23 417)))
(assert (= "y" (str.at var35 308)))
(assert (= "9" (str.at var36 462)))
(assert (= "E" (str.at var59 349)))
(assert (= "1" (str.at var6 352)))
(assert (= "!" (str.at var7 898)))
(assert (= "w" (str.at var23 481)))
(assert (= "%" (str.at var0 728)))
(assert (= "d" (str.at var48 567)))
(assert (= "J" (str.at var56 581)))
(assert (= "*" (str.at var57 726)))
(assert (= "W" (str.at var10 324)))
(assert (= "*" (str.at var32 486)))
(assert (= "q" (str.at var16 938)))
(assert (= "S" (str.at var30 67)))
(assert (= "?" (str.at var3 395)))
(assert (= "+" (str.at var1 351)))
(assert (= ")" (str.at var50 50)))
(assert (= "H" (str.at var8 747)))
(assert (= "b" (str.at var10 366)))
(assert (= "e" (str.at var50 349)))
(assert (= "g" (str.at var19 793)))
(assert (= "<" (str.at var11 674)))
(assert (= "O" (str.at var40 666)))
(assert (= "Z" (str.at var30 376)))
(assert (= "O" (str.at var50 729)))
(assert (= "J" (str.at var12 966)))
(assert (= "<" (str.at var8 745)))
(assert (= "q" (str.at var37 78)))
(assert (= "A" (str.at var35 414)))
(assert (= "]" (str.at var15 960)))
(assert (= "[" (str.at var29 402)))
(assert (= "6" (str.at var11 276)))
(assert (= "b" (str.at var10 624)))
(assert (= "0" (str.at var4 519)))
(assert (= ":" (str.at var11 197)))
(assert (= "g" (str.at var2 621)))
(assert (= "&" (str.at var37 13)))
(assert (= "i" (str.at var5 188)))
(assert (= "d" (str.at var31 321)))
(assert (= "+" (str.at var45 970)))
(assert (= "," (str.at var38 704)))
(assert (= "x" (str.at var43 535)))
(assert (= "Y" (str.at var27 195)))
(assert (= "W" (str.at var11 194)))
(assert (= "d" (str.at var22 315)))
(assert (= "(" (str.at var49 104)))
(assert (= "L" (str.at var1 423)))
(assert (= "R" (str.at var15 528)))
(assert (= "v" (str.at var33 3)))
(assert (= "j" (str.at var12 327)))
(assert (= "W" (str.at var55 287)))
(assert (= "W" (str.at var31 521)))
(assert (= "J" (str.at var7 884)))
(assert (= "o" (str.at var8 162)))
(assert (= "E" (str.at var6 280)))
(assert (= "2" (str.at var34 318)))
(assert (= "$" (str.at var59 326)))
(assert (= "N" (str.at var55 743)))
(assert (= """" (str.at var12 202)))
(assert (= "j" (str.at var37 493)))
(assert (= "H" (str.at var32 594)))
(assert (= "D" (str.at var37 324)))
(assert (= "Z" (str.at var5 667)))
(assert (= "2" (str.at var57 668)))
(assert (= "_" (str.at var29 948)))
(assert (= "M" (str.at var12 161)))
(assert (= "*" (str.at var16 223)))
(assert (= "r" (str.at var52 60)))
(assert (= ">" (str.at var60 13)))
(assert (= "T" (str.at var53 194)))
(assert (= "H" (str.at var51 367)))
(assert (= "n" (str.at var39 820)))
(assert (= "g" (str.at var8 954)))
(assert (= "t" (str.at var21 904)))
(assert (= "b" (str.at var56 809)))
(assert (= "y" (str.at var1 830)))
(assert (= "{" (str.at var28 81)))
(assert (= "Y" (str.at var32 309)))
(assert (= "," (str.at var20 144)))
(assert (= "2" (str.at var33 762)))
(assert (= "f" (str.at var10 182)))
(assert (= "}" (str.at var57 84)))
(assert (= "O" (str.at var13 427)))
(assert (= """" (str.at var43 804)))
(assert (= "*" (str.at var12 717)))
(assert (= "T" (str.at var26 749)))
(assert (= "?" (str.at var37 532)))
(assert (= "q" (str.at var48 683)))
(assert (= "4" (str.at var36 922)))
(assert (= "<" (str.at var44 85)))
(assert (= ":" (str.at var58 502)))
(assert (= "^" (str.at var9 990)))
(assert (= "n" (str.at var2 102)))
(assert (= "O" (str.at var13 21)))
(assert (= "H" (str.at var24 280)))
(assert (= "o" (str.at var8 14)))
(assert (= "*" (str.at var24 516)))
(assert (= "n" (str.at var20 557)))
(assert (= "r" (str.at var24 639)))
(assert (= "t" (str.at var15 18)))
(assert (= "A" (str.at var23 12)))
(assert (= ":" (str.at var29 957)))
(assert (= "p" (str.at var11 901)))
(assert (= "_" (str.at var45 248)))
(assert (= "\\" (str.at var2 338)))
(assert (= "X" (str.at var41 957)))
(assert (= "a" (str.at var29 966)))
(assert (= "V" (str.at var57 42)))
(assert (= "\\" (str.at var25 718)))
(assert (= "y" (str.at var2 565)))
(assert (= "H" (str.at var2 793)))
(assert (= "v" (str.at var51 536)))
(assert (= "M" (str.at var57 812)))
(assert (= "*" (str.at var44 191)))
(assert (= "[" (str.at var32 349)))
(assert (= "W" (str.at var46 400)))
(assert (= "F" (str.at var8 947)))
(assert (= "Z" (str.at var52 232)))
(assert (= "v" (str.at var60 957)))
(assert (= "*" (str.at var15 612)))
(assert (= "<" (str.at var59 822)))
(assert (= "}" (str.at var31 788)))
(assert (= "I" (str.at var2 158)))
(assert (= "J" (str.at var6 438)))
(assert (= "-" (str.at var50 779)))
(assert (= "]" (str.at var43 591)))
(assert (= "o" (str.at var13 319)))
(assert (= "i" (str.at var52 453)))
(assert (= "<" (str.at var11 445)))
(assert (= "^" (str.at var11 705)))
(assert (= "t" (str.at var47 665)))
(assert (= "`" (str.at var6 25)))
(assert (= "6" (str.at var46 811)))
(assert (= "6" (str.at var56 607)))
(assert (= "q" (str.at var28 421)))
(assert (= "'" (str.at var22 233)))
(assert (= "7" (str.at var13 621)))
(assert (= "Y" (str.at var32 243)))
(assert (= "}" (str.at var9 107)))
(assert (= "0" (str.at var0 837)))
(assert (= "X" (str.at var27 985)))
(assert (= "}" (str.at var59 813)))
(assert (= "v" (str.at var7 996)))
(assert (= ")" (str.at var20 250)))
(assert (= ">" (str.at var57 44)))
(assert (= "X" (str.at var9 93)))
(assert (= "]" (str.at var17 789)))
(assert (= "." (str.at var30 237)))
(assert (= "v" (str.at var41 778)))
(assert (= "@" (str.at var43 112)))
(assert (= "3" (str.at var42 715)))
(assert (= """" (str.at var13 158)))
(assert (= "3" (str.at var2 600)))
(assert (= "w" (str.at var27 334)))
(assert (= "A" (str.at var60 974)))
(assert (= ":" (str.at var40 517)))
(assert (= "v" (str.at var29 877)))
(assert (= "I" (str.at var51 204)))
(assert (= "}" (str.at var19 675)))
(assert (= "V" (str.at var42 42)))
(assert (= "+" (str.at var7 650)))
(assert (= "5" (str.at var4 807)))
(assert (= ">" (str.at var21 738)))
(assert (= "W" (str.at var42 231)))
(assert (= "'" (str.at var16 962)))
(assert (= "<" (str.at var26 851)))
(assert (= "U" (str.at var54 835)))
(assert (= "+" (str.at var8 32)))
(assert (= "o" (str.at var54 194)))
(assert (= "2" (str.at var9 140)))
(assert (= "L" (str.at var34 264)))
(assert (= "0" (str.at var19 864)))
(assert (= "g" (str.at var41 122)))
(assert (= "1" (str.at var21 83)))
(assert (= "$" (str.at var24 584)))
(assert (= "7" (str.at var25 485)))
(assert (= "q" (str.at var2 508)))
(assert (= "E" (str.at var8 995)))
(assert (= "]" (str.at var4 889)))
(assert (= "d" (str.at var11 206)))
(assert (= "*" (str.at var55 22)))
(assert (= "_" (str.at var48 194)))
(assert (= "x" (str.at var31 394)))
(assert (= "h" (str.at var9 712)))
(assert (= "4" (str.at var24 861)))
(assert (= "9" (str.at var51 30)))
(assert (= "e" (str.at var1 706)))
(assert (= "[" (str.at var52 637)))
(assert (= "b" (str.at var0 455)))
(assert (= "Q" (str.at var8 624)))
(assert (= "L" (str.at var52 473)))
(assert (= "K" (str.at var51 359)))
(assert (= "l" (str.at var25 380)))
(assert (= "T" (str.at var25 60)))
(assert (= "^" (str.at var47 121)))
(assert (= "v" (str.at var33 540)))
(assert (= "r" (str.at var27 686)))
(assert (= "h" (str.at var40 495)))
(assert (= "H" (str.at var11 139)))
(assert (= "%" (str.at var1 119)))
(assert (= "`" (str.at var14 923)))
(assert (= "a" (str.at var28 711)))
(assert (= "-" (str.at var19 795)))
(assert (= "D" (str.at var25 728)))
(assert (= "H" (str.at var39 518)))
(assert (= ">" (str.at var7 811)))
(assert (= "J" (str.at var31 861)))
(assert (= "V" (str.at var12 698)))
(assert (= "w" (str.at var20 213)))
(assert (= "-" (str.at var40 811)))
(assert (= "c" (str.at var25 579)))
(assert (= "]" (str.at var34 46)))
(assert (= "I" (str.at var14 585)))
(assert (= "<" (str.at var8 353)))
(assert (= "d" (str.at var53 804)))
(assert (= "S" (str.at var8 168)))
(assert (= "_" (str.at var24 67)))
(assert (= "F" (str.at var58 512)))
(assert (= "`" (str.at var18 714)))
(assert (= "i" (str.at var27 152)))
(assert (= "S" (str.at var56 310)))
(assert (= "5" (str.at var22 537)))
(assert (= "y" (str.at var47 838)))
(assert (= "v" (str.at var15 587)))
(assert (= "t" (str.at var34 2)))
(assert (= "9" (str.at var35 909)))
(assert (= "s" (str.at var44 300)))
(assert (= "M" (str.at var43 487)))
(assert (= "8" (str.at var7 592)))
(assert (= "a" (str.at var36 721)))
(assert (= "-" (str.at var47 898)))
(assert (= "R" (str.at var15 888)))
(assert (= "m" (str.at var21 969)))
(assert (= "n" (str.at var57 119)))
(assert (= "b" (str.at var51 49)))
(assert (= "d" (str.at var38 882)))
(assert (= "V" (str.at var12 677)))
(assert (= "o" (str.at var40 721)))
(assert (= "p" (str.at var42 223)))
(assert (= "B" (str.at var16 12)))
(assert (= "T" (str.at var34 748)))
(assert (= """" (str.at var48 521)))
(assert (= "T" (str.at var37 620)))
(assert (= "{" (str.at var22 290)))
(assert (= "X" (str.at var21 660)))
(assert (= "d" (str.at var45 674)))
(assert (= "]" (str.at var17 71)))
(assert (= "z" (str.at var60 472)))
(assert (= "|" (str.at var10 294)))
(assert (= "," (str.at var41 5)))
(assert (= ":" (str.at var38 431)))
(assert (= "$" (str.at var2 234)))
(assert (= "|" (str.at var57 30)))
(assert (= "{" (str.at var41 852)))
(assert (= "/" (str.at var52 581)))
(assert (= "q" (str.at var8 673)))
(assert (= "z" (str.at var36 567)))
(assert (= "d" (str.at var53 697)))
(assert (= "%" (str.at var3 945)))
(assert (= "N" (str.at var27 464)))
(assert (= "y" (str.at var46 7)))
(assert (= "j" (str.at var56 782)))
(assert (= "|" (str.at var55 411)))
(assert (= "%" (str.at var0 615)))
(assert (= "q" (str.at var53 354)))
(assert (= "3" (str.at var45 79)))
(assert (= ":" (str.at var11 181)))
(assert (= "D" (str.at var55 171)))
(assert (= "_" (str.at var34 23)))
(assert (= "W" (str.at var6 355)))
(assert (= "h" (str.at var25 615)))
(assert (= "R" (str.at var48 787)))
(assert (= "8" (str.at var18 832)))
(assert (= "@" (str.at var13 271)))
(assert (= "i" (str.at var17 1000)))
(assert (= "t" (str.at var17 238)))
(assert (= "T" (str.at var48 733)))
(assert (= "b" (str.at var51 493)))
(assert (= "l" (str.at var5 883)))
(assert (= "n" (str.at var15 746)))
(assert (= "d" (str.at var32 420)))
(assert (= ">" (str.at var46 502)))
(assert (= "[" (str.at var23 995)))
(assert (= "7" (str.at var37 917)))
(assert (= "T" (str.at var54 488)))
(assert (= "j" (str.at var23 96)))
(assert (= "2" (str.at var41 640)))
(assert (= "4" (str.at var31 459)))
(assert (= "b" (str.at var32 428)))
(assert (= "[" (str.at var56 579)))
(assert (= "n" (str.at var44 520)))
(assert (= "N" (str.at var12 687)))
(assert (= "r" (str.at var14 132)))
(assert (= "]" (str.at var9 75)))
(assert (= "H" (str.at var33 844)))
(assert (= "@" (str.at var41 819)))
(assert (= "?" (str.at var39 723)))
(assert (= ":" (str.at var24 60)))
(assert (= "j" (str.at var20 864)))
(assert (= "x" (str.at var32 370)))
(assert (= "P" (str.at var18 855)))
(assert (= "R" (str.at var10 184)))
(assert (= "y" (str.at var8 615)))
(assert (= "C" (str.at var39 249)))
(assert (= "$" (str.at var21 316)))
(assert (= "Q" (str.at var55 545)))
(assert (= "I" (str.at var7 589)))
(assert (= "z" (str.at var7 178)))
(assert (= "/" (str.at var6 558)))
(assert (= "J" (str.at var17 182)))
(assert (= "B" (str.at var59 914)))
(assert (= "'" (str.at var55 16)))
(assert (= "_" (str.at var45 734)))
(assert (= "&" (str.at var0 189)))
(assert (= "B" (str.at var19 691)))
(assert (= ":" (str.at var8 150)))
(assert (= "<" (str.at var38 284)))
(assert (= "!" (str.at var42 124)))
(assert (= "}" (str.at var18 500)))
(assert (= "{" (str.at var46 704)))
(assert (= "f" (str.at var21 500)))
(assert (= ":" (str.at var49 860)))
(assert (= "%" (str.at var35 249)))
(assert (= "C" (str.at var21 219)))
(assert (= "H" (str.at var34 610)))
(assert (= "U" (str.at var29 657)))
(assert (= ")" (str.at var28 580)))
(assert (= "s" (str.at var59 922)))
(assert (= "+" (str.at var38 533)))
(assert (= "w" (str.at var34 751)))
(assert (= "#" (str.at var0 338)))
(assert (= "#" (str.at var39 335)))
(assert (= "," (str.at var36 759)))
(assert (= "b" (str.at var43 639)))
(assert (= "N" (str.at var43 790)))
(assert (= "&" (str.at var7 673)))
(assert (= "h" (str.at var25 172)))
(assert (= "{" (str.at var59 769)))
(assert (= "+" (str.at var55 50)))
(assert (= "c" (str.at var30 258)))
(assert (= "]" (str.at var52 548)))
(assert (= "i" (str.at var42 435)))
(assert (= "," (str.at var52 441)))
(assert (= "$" (str.at var4 417)))
(assert (= "A" (str.at var60 286)))
(assert (= """" (str.at var40 220)))
(assert (= "V" (str.at var35 317)))
(assert (= "!" (str.at var15 253)))
(assert (= "V" (str.at var8 230)))
(assert (= "{" (str.at var32 636)))
(assert (= "5" (str.at var3 146)))
(assert (= ":" (str.at var35 761)))
(assert (= "n" (str.at var35 788)))
(assert (= "p" (str.at var37 15)))
(assert (= "(" (str.at var12 782)))
(assert (= "K" (str.at var29 767)))
(assert (= "S" (str.at var58 327)))
(assert (= "U" (str.at var53 903)))
(assert (= "C" (str.at var51 719)))
(assert (= "+" (str.at var1 174)))
(assert (= "U" (str.at var38 548)))
(assert (= "O" (str.at var28 602)))
(assert (= "B" (str.at var35 1000)))
(assert (= "G" (str.at var45 38)))
(assert (= "@" (str.at var12 140)))
(assert (= "A" (str.at var17 296)))
(assert (= "Y" (str.at var16 451)))
(assert (= "s" (str.at var53 898)))
(assert (= "1" (str.at var24 572)))
(assert (= "F" (str.at var44 387)))
(assert (= "A" (str.at var32 557)))
(assert (= "U" (str.at var53 534)))
(assert (= "." (str.at var49 564)))
(assert (= ")" (str.at var45 167)))
(assert (= "+" (str.at var32 84)))
(assert (= "y" (str.at var4 930)))
(assert (= """" (str.at var34 92)))
(assert (= "C" (str.at var25 468)))
(assert (= "n" (str.at var13 669)))
(assert (= "." (str.at var18 423)))
(assert (= "u" (str.at var25 169)))
(assert (= "i" (str.at var17 944)))
(assert (= "X" (str.at var45 116)))
(assert (= "X" (str.at var54 983)))
(assert (= ";" (str.at var31 773)))
(assert (= "." (str.at var23 529)))
(assert (= ">" (str.at var19 246)))
(assert (= "E" (str.at var43 86)))
(assert (= "," (str.at var21 643)))
(assert (= "H" (str.at var17 7)))
(assert (= "r" (str.at var12 21)))
(assert (= "H" (str.at var31 653)))
(assert (= "@" (str.at var54 240)))
(assert (= "v" (str.at var8 312)))
(assert (= "^" (str.at var36 521)))
(assert (= "~" (str.at var16 685)))
(assert (= "Z" (str.at var8 327)))
(assert (= "m" (str.at var38 11)))
(assert (= "H" (str.at var23 822)))
(assert (= "%" (str.at var60 961)))
(assert (= "," (str.at var33 931)))
(assert (= "m" (str.at var48 413)))
(assert (= "i" (str.at var38 84)))
(assert (= "9" (str.at var52 653)))
(assert (= "(" (str.at var43 872)))
(assert (= "." (str.at var47 101)))
(assert (= "p" (str.at var41 628)))
(assert (= "<" (str.at var37 257)))
(assert (= "x" (str.at var36 201)))
(assert (= "e" (str.at var12 591)))
(assert (= "j" (str.at var47 32)))
(assert (= "s" (str.at var48 485)))
(assert (= "3" (str.at var11 164)))
(assert (= "A" (str.at var59 895)))
(assert (= "%" (str.at var33 159)))
(assert (= "e" (str.at var35 409)))
(assert (= "L" (str.at var52 933)))
(assert (= "S" (str.at var25 411)))
(assert (= "z" (str.at var27 310)))
(assert (= "V" (str.at var45 7)))
(assert (= "~" (str.at var25 909)))
(assert (= "U" (str.at var36 152)))
(assert (= "!" (str.at var42 228)))
(assert (= "q" (str.at var8 204)))
(assert (= "I" (str.at var1 378)))
(assert (= "Q" (str.at var34 572)))
(assert (= "!" (str.at var22 693)))
(assert (= "X" (str.at var31 936)))
(assert (= "m" (str.at var33 474)))
(assert (= "I" (str.at var28 146)))
(assert (= ";" (str.at var19 913)))
(assert (= "/" (str.at var2 893)))
(assert (= "-" (str.at var1 654)))
(assert (= "I" (str.at var20 556)))
(assert (= "=" (str.at var13 718)))
(assert (= "0" (str.at var5 756)))
(assert (= "," (str.at var56 617)))
(assert (= "}" (str.at var18 189)))
(assert (= "8" (str.at var53 860)))
(assert (= "R" (str.at var14 785)))
(assert (= "+" (str.at var45 21)))
(assert (= "(" (str.at var26 850)))
(assert (= "b" (str.at var59 764)))
(assert (= "B" (str.at var14 44)))
(assert (= "o" (str.at var8 281)))
(assert (= "N" (str.at var38 900)))
(assert (= "~" (str.at var2 695)))
(assert (= "g" (str.at var48 776)))
(assert (= "C" (str.at var17 367)))
(assert (= "R" (str.at var27 764)))
(assert (= "5" (str.at var34 579)))
(assert (= "." (str.at var34 234)))
(assert (= "D" (str.at var50 305)))
(assert (= "+" (str.at var22 649)))
(assert (= "B" (str.at var41 132)))
(assert (= "}" (str.at var50 936)))
(assert (= "+" (str.at var5 322)))
(assert (= "g" (str.at var58 884)))
(assert (= "<" (str.at var28 430)))
(assert (= "q" (str.at var31 948)))
(assert (= "N" (str.at var60 310)))
(assert (= "*" (str.at var57 667)))
(assert (= "8" (str.at var18 168)))
(assert (= "D" (str.at var13 968)))
(assert (= "F" (str.at var30 277)))
(assert (= "'" (str.at var30 832)))
(assert (= "M" (str.at var8 559)))
(assert (= ":" (str.at var28 617)))
(assert (= "s" (str.at var15 474)))
(assert (= "W" (str.at var26 511)))
(assert (= "," (str.at var42 946)))
(assert (= "n" (str.at var41 749)))
(assert (= "=" (str.at var50 428)))
(assert (= "_" (str.at var18 833)))
(assert (= "(" (str.at var39 938)))
(assert (= "^" (str.at var0 899)))
(assert (= "L" (str.at var10 297)))
(assert (= "d" (str.at var34 553)))
(assert (= "B" (str.at var54 898)))
(assert (= "l" (str.at var59 442)))
(assert (= "&" (str.at var45 646)))
(assert (= "w" (str.at var54 84)))
(assert (= "W" (str.at var58 951)))
(assert (= "E" (str.at var24 894)))
(assert (= "K" (str.at var28 970)))
(assert (= "s" (str.at var58 567)))
(assert (= "z" (str.at var4 51)))
(assert (= "|" (str.at var58 713)))
(assert (= "&" (str.at var60 759)))
(assert (= ";" (str.at var54 546)))
(assert (= "5" (str.at var21 469)))
(assert (= "9" (str.at var59 505)))
(assert (= "m" (str.at var50 243)))
(assert (= "%" (str.at var4 795)))
(assert (= "}" (str.at var4 358)))
(assert (= "m" (str.at var40 587)))
(assert (= "\\" (str.at var4 709)))
(assert (= ")" (str.at var6 872)))
(assert (= "?" (str.at var20 591)))
(assert (= "4" (str.at var40 123)))
(assert (= "W" (str.at var9 423)))
(assert (= "8" (str.at var15 802)))
(assert (= "~" (str.at var55 725)))
(assert (= "U" (str.at var39 85)))
(assert (= "b" (str.at var42 969)))
(assert (= "6" (str.at var9 531)))
(assert (= "1" (str.at var26 313)))
(assert (= "?" (str.at var56 961)))
(assert (= "=" (str.at var16 527)))
(assert (= "/" (str.at var41 950)))
(assert (= "e" (str.at var50 406)))
(assert (= ";" (str.at var23 422)))
(assert (= "m" (str.at var43 888)))
(assert (= "f" (str.at var22 121)))
(assert (= "x" (str.at var21 808)))
(assert (= "H" (str.at var13 977)))
(assert (= "$" (str.at var25 269)))
(assert (= "%" (str.at var50 650)))
(assert (= "p" (str.at var42 441)))
(assert (= "4" (str.at var18 69)))
(assert (= "C" (str.at var59 390)))
(assert (= "2" (str.at var36 180)))
(assert (= "\\" (str.at var0 832)))
(assert (= "u" (str.at var24 583)))
(assert (= "J" (str.at var31 14)))
(assert (= "N" (str.at var28 710)))
(assert (= "X" (str.at var53 580)))
(assert (= "m" (str.at var9 283)))
(assert (= "Q" (str.at var49 994)))
(assert (= "\\" (str.at var37 996)))
(assert (= """" (str.at var28 637)))
(assert (= "=" (str.at var16 956)))
(assert (= "}" (str.at var14 4)))
(assert (= "$" (str.at var25 34)))
(assert (= "&" (str.at var30 763)))
(assert (= "/" (str.at var56 863)))
(assert (= "@" (str.at var26 136)))
(assert (= "i" (str.at var39 486)))
(assert (= "R" (str.at var23 233)))
(assert (= "3" (str.at var27 25)))
(assert (= "3" (str.at var41 386)))
(assert (= "1" (str.at var39 230)))
(assert (= "M" (str.at var5 397)))
(assert (= "5" (str.at var47 148)))
(assert (= "s" (str.at var26 292)))
(assert (= "t" (str.at var1 216)))
(assert (= "o" (str.at var23 856)))
(assert (= "b" (str.at var24 556)))
(assert (= "9" (str.at var56 603)))
(assert (= "$" (str.at var5 475)))
(assert (= "3" (str.at var52 622)))
(assert (= "D" (str.at var11 811)))
(assert (= "W" (str.at var48 648)))
(assert (= "3" (str.at var55 422)))
(assert (= "f" (str.at var9 764)))
(assert (= "{" (str.at var7 85)))
(assert (= "^" (str.at var41 546)))
(assert (= "H" (str.at var10 562)))
(assert (= "k" (str.at var15 441)))
(assert (= "9" (str.at var43 948)))
(assert (= "[" (str.at var27 493)))
(assert (= "2" (str.at var42 573)))
(assert (= "G" (str.at var49 424)))
(assert (= "C" (str.at var52 247)))
(assert (= "2" (str.at var22 155)))
(assert (= "G" (str.at var59 624)))
(assert (= "<" (str.at var10 72)))
(assert (= "." (str.at var3 451)))
(assert (= "i" (str.at var39 818)))
(assert (= "O" (str.at var55 286)))
(assert (= "'" (str.at var11 214)))
(assert (= "9" (str.at var16 133)))
(assert (= "o" (str.at var55 474)))
(assert (= "i" (str.at var38 166)))
(assert (= """" (str.at var20 872)))
(assert (= "1" (str.at var36 819)))
(assert (= "U" (str.at var48 750)))
(assert (= "7" (str.at var8 840)))
(assert (= "d" (str.at var22 33)))
(assert (= "g" (str.at var49 454)))
(assert (= "v" (str.at var45 326)))
(assert (= ":" (str.at var4 622)))
(assert (= "p" (str.at var46 957)))
(assert (= "&" (str.at var23 915)))
(assert (= "G" (str.at var42 685)))
(assert (= ")" (str.at var12 549)))
(assert (= "%" (str.at var22 384)))
(assert (= "%" (str.at var59 830)))
(assert (= "=" (str.at var16 936)))
(assert (= "L" (str.at var18 149)))
(assert (= "s" (str.at var60 857)))
(assert (= "D" (str.at var13 572)))
(assert (= "i" (str.at var28 882)))
(assert (= "0" (str.at var41 476)))
(assert (= "3" (str.at var34 444)))
(assert (= "C" (str.at var56 535)))
(assert (= "%" (str.at var38 769)))
(assert (= "3" (str.at var14 982)))
(assert (= "V" (str.at var45 952)))
(assert (= "\\" (str.at var60 520)))
(assert (= "^" (str.at var29 781)))
(assert (= "v" (str.at var47 299)))
(assert (= "p" (str.at var8 127)))
(assert (= "A" (str.at var29 182)))
(assert (= "E" (str.at var35 763)))
(assert (= "<" (str.at var19 888)))
(assert (= "^" (str.at var25 774)))
(assert (= "M" (str.at var4 596)))
(assert (= "H" (str.at var34 231)))
(assert (= ":" (str.at var58 715)))
(assert (= ">" (str.at var42 861)))
(assert (= ")" (str.at var6 903)))
(assert (= "h" (str.at var3 650)))
(assert (= "W" (str.at var38 109)))
(assert (= "6" (str.at var15 157)))
(assert (= "K" (str.at var2 10)))
(assert (= "b" (str.at var10 704)))
(assert (= "B" (str.at var41 8)))
(assert (= "z" (str.at var46 236)))
(assert (= "d" (str.at var15 585)))
(assert (= "y" (str.at var6 168)))
(assert (= "," (str.at var18 926)))
(assert (= "d" (str.at var21 687)))
(assert (= "W" (str.at var6 841)))
(assert (= "k" (str.at var50 902)))
(assert (= "x" (str.at var19 935)))
(assert (= ">" (str.at var45 159)))
(assert (= "m" (str.at var34 595)))
(assert (= "!" (str.at var4 234)))
(assert (= "<" (str.at var20 64)))
(assert (= "U" (str.at var54 375)))
(assert (= "u" (str.at var19 298)))
(assert (= "x" (str.at var56 174)))
(assert (= "." (str.at var34 633)))
(assert (= "-" (str.at var47 277)))
(assert (= "O" (str.at var36 668)))
(assert (= "$" (str.at var39 794)))
(assert (= ")" (str.at var45 911)))
(assert (= "h" (str.at var51 496)))
(assert (= "4" (str.at var22 737)))
(assert (= "h" (str.at var42 909)))
(assert (= "G" (str.at var31 29)))
(assert (= "'" (str.at var45 221)))
(assert (= "S" (str.at var5 192)))
(assert (= "p" (str.at var26 941)))
(assert (= "U" (str.at var14 985)))
(assert (= "w" (str.at var6 410)))
(assert (= "q" (str.at var30 424)))
(assert (= "W" (str.at var32 290)))
(assert (= "5" (str.at var42 694)))
(assert (= "C" (str.at var34 412)))
(assert (= "X" (str.at var40 37)))
(assert (= "M" (str.at var9 766)))
(assert (= "M" (str.at var23 887)))
(assert (= "5" (str.at var24 264)))
(assert (= "/" (str.at var7 554)))
(assert (= "h" (str.at var24 796)))
(assert (= "t" (str.at var50 849)))
(assert (= "F" (str.at var56 343)))
(assert (= "&" (str.at var44 326)))
(assert (= "t" (str.at var45 52)))
(assert (= "B" (str.at var1 151)))
(assert (= "Y" (str.at var45 702)))
(assert (= "T" (str.at var56 11)))
(assert (= "M" (str.at var48 357)))
(assert (= "?" (str.at var38 865)))
(assert (= "k" (str.at var51 440)))
(assert (= """" (str.at var47 84)))
(assert (= "e" (str.at var49 681)))
(assert (= "I" (str.at var4 567)))
(assert (= "c" (str.at var12 336)))
(assert (= "\\" (str.at var26 732)))
(assert (= "n" (str.at var36 964)))
(assert (= "&" (str.at var25 593)))
(assert (= "f" (str.at var12 847)))
(assert (= "=" (str.at var46 878)))
(assert (= "D" (str.at var25 434)))
(assert (= "=" (str.at var46 62)))
(assert (= "(" (str.at var7 395)))
(assert (= "'" (str.at var33 747)))
(assert (= "{" (str.at var40 448)))
(assert (= "+" (str.at var25 779)))
(assert (= ")" (str.at var5 861)))
(assert (= "D" (str.at var18 192)))
(assert (= "$" (str.at var56 33)))
(assert (= "e" (str.at var22 412)))
(assert (= "#" (str.at var15 364)))
(assert (= "7" (str.at var27 958)))
(assert (= "d" (str.at var58 772)))
(assert (= "0" (str.at var34 403)))
(assert (= "`" (str.at var42 766)))
(assert (= "(" (str.at var60 169)))
(assert (= "f" (str.at var4 793)))
(assert (= "i" (str.at var59 748)))
(assert (= "W" (str.at var19 285)))
(assert (= "Q" (str.at var59 755)))
(assert (= "-" (str.at var13 470)))
(assert (= "_" (str.at var19 289)))
(assert (= "Q" (str.at var4 58)))
(assert (= "@" (str.at var25 49)))
(assert (= "g" (str.at var41 992)))
(assert (= "E" (str.at var8 850)))
(assert (= "." (str.at var4 944)))
(assert (= "H" (str.at var0 53)))
(assert (= "&" (str.at var60 916)))
(assert (= "D" (str.at var9 630)))
(assert (= "w" (str.at var51 11)))
(assert (= "=" (str.at var55 430)))
(assert (= "k" (str.at var22 249)))
(assert (= "+" (str.at var56 152)))
(assert (= "z" (str.at var30 400)))
(assert (= "i" (str.at var9 530)))
(assert (= "h" (str.at var30 358)))
(assert (= "z" (str.at var30 10)))
(assert (= "_" (str.at var20 888)))
(assert (= "`" (str.at var23 26)))
(assert (= "x" (str.at var11 845)))
(assert (= "O" (str.at var51 732)))
(assert (= "y" (str.at var43 482)))
(assert (= "=" (str.at var60 619)))
(assert (= ")" (str.at var13 768)))
(assert (= "B" (str.at var40 151)))
(assert (= "^" (str.at var33 730)))
(assert (= "B" (str.at var8 438)))
(assert (= "b" (str.at var9 36)))
(assert (= "C" (str.at var40 995)))
(assert (= "w" (str.at var60 856)))
(assert (= "]" (str.at var22 851)))
(assert (= "%" (str.at var39 413)))
(assert (= "n" (str.at var7 160)))
(assert (= "X" (str.at var21 479)))
(assert (= "a" (str.at var15 17)))
(assert (= "4" (str.at var43 282)))
(check-sat)